10J3M/DAT/10J3MNLR-20.dat
10 3
30.162 25.3685
24.2519 10.3233
23.6677 35.004
37.7537 40.5151
32.5704 22.8531
33.0002 27.0048
14.6813 12.08
16.4692 37.3726
21.0167 32.6053
29.4379 43.8944
95.6737