10J3M/SOL/10J3MNLR-20.sol
solution status: optimal solution found
objective value:                     87.6703333333333
x#1#2                                               1 	(obj:0)
x#2#1                                               1 	(obj:0)
x#3#1                                               1 	(obj:0)
x#4#3                                               1 	(obj:0)
x#5#1                               0.069246749656495 	(obj:0)
x#5#2                               0.730316936894296 	(obj:0)
x#5#3                                0.20043631344921 	(obj:0)
x#6#3                                               1 	(obj:0)
x#7#1                                               1 	(obj:0)
x#8#1                               0.109133351852029 	(obj:0)
x#8#2                               0.260104836416545 	(obj:0)
x#8#3                               0.630761811731426 	(obj:0)
x#9#1                                               1 	(obj:0)
x#10#2                                              1 	(obj:0)
z                                    87.6703333333333 	(obj:1)
